3	33	1	8	29	100	0	0	0	0	0	0
800	1	0	0	0	0	0	0	0	0	0	0
800	1	0	0	0	0	0	0	0	0	0	0
800	1	0	0	0	0	0	0	0	0	0	0
100	1	0	79.69	3.39	1	0	0	0	0	0	0
100	1	0	79.69	3.39	1	0	0	0	0	0	0
100	1	0	79.69	3.39	1	0	0	0	0	0	0
100	1	0	79.69	3.39	1	0	0	0	0	0	0
100	1	0	79.69	3.39	1	0	0	0	0	0	0
100	1	0	79.69	3.39	1	0	0	0	0	0	0
100	1	0	79.69	3.39	1	0	0	0	0	0	0
100	1	0	79.69	3.39	1	0	0	0	0	0	0
100	1	0	79.69	3.39	1	0	0	0	0	0	0
100	1	0	79.69	3.39	1	0	0	0	0	0	0
100	1	0	79.69	3.39	1	0	0	0	0	0	0
100	1	0	79.69	3.39	1	0	0	0	0	0	0
100	1	0	79.69	3.39	1	0	0	0	0	0	0
100	1	0	79.69	3.39	1	0	0	0	0	0	0
100	1	0	79.69	3.39	1	0	0	0	0	0	0
100	1	0	79.69	3.39	1	0	0	0	0	0	0
100	1	0	79.69	3.39	1	0	0	0	0	0	0
100	1	0	79.69	3.39	1	0	0	0	0	0	0
100	1	0	79.69	3.39	1	0	0	0	0	0	0
100	1	0	79.69	3.39	1	0	0	0	0	0	0
100	1	0	79.69	3.39	1	0	0	0	0	0	0
100	1	0	79.69	3.39	1	0	0	0	0	0	0
100	1	0	79.69	3.39	1	0	0	0	0	0	0
100	1	0	79.69	3.39	1	0	0	0	0	0	0
100	1	0	79.69	3.39	1	0	0	0	0	0	0
100	1	0	79.69	3.39	1	0	0	0	0	0	0
100	1	0	79.69	3.39	1	0	0	0	0	0	0
100	1	0	79.69	3.39	1	0	0	0	0	0	0
100	1	0	79.69	3.39	1	0	0	0	0	0	0
100	1	0	79.69	3.39	1	0	0	0	0	0	0
100	1	0	79.69	3.39	1	0	0	0	0	0	0
100	1	0	79.69	3.39	1	0	0	0	0	0	0
100	1	0	79.69	3.39	1	0	0	0	0	0	0
50	150	0	0	0	0	1236	0	0	99999	0	0
25	25	0	0	0	0	1236	0	0	99999	0	0
50	25	0	0	0	0	1236	0	0	99999	0	0
75	25	0	0	0	0	1236	0	0	99999	0	0
25	50	0	0	0	0	1236	0	0	99999	0	0
75	50	0	0	0	0	1236	0	0	99999	0	0
25	75	0	0	0	0	1236	0	0	99999	0	0
50	75	0	0	0	0	1236	0	0	99999	0	0
75	75	0	0	0	0	1236	0	0	99999	0	0
25	25	0	0	0	0	1236	0	0	0	0	0
50	25	0	0	0	0	1236	0	0	0	0	0
75	25	0	0	0	0	1236	0	0	0	0	0
25	50	0	0	0	0	1236	0	0	0	0	0
75	50	0	0	0	0	1236	0	0	0	0	0
25	75	0	0	0	0	1236	0	0	0	0	0
50	75	0	0	0	0	1236	0	0	0	0	0
75	75	0	0	0	0	1236	0	0	0	0	0
40      50      0       0       0       0       1236    0       0       0       0       0
73      52      0       0       0       0       1236    0       0       0       0       0
90      55      0       0       0       0       1236    0       0       0       0       0
55      79      0       0       0       0       1236    0       0       0       0       0
69      89      0       0       0       0       1236    0       0       0       0       0
32      80      0       0       0       0       1236    0       0       0       0       0
39      96      0       0       0       0       1236    0       0       0       0       0
23      80      0       0       0       0       1236    0       0       0       0       0
4	83	0	0	0	0	1236	0	0	0	0	0
18	58	0	0	0	0	1236	0	0	0	0	0
1	56	0	0	0	0	1236	0	0	0	0	0
13	31	0	0	0	0	1236	0	0	0	0	0
-5	38	0	0	0	0	1236	0	0	0	0	0
26	37	0	0	0	0	1236	0	0	0	0	0
28	13	0	0	0	0	1236	0	0	0	0	0
39	31	0	0	0	0	1236	0	0	0	0	0
48	11	0	0	0	0	1236	0	0	0	0	0
59	17	0	0	0	0	1236	0	0	0	0	0
73	23	0	0	0	0	1236	0	0	0	0	0
74	32	0	0	0	0	1236	0	0	0	0	0
90	44	0	0	0	0	1236	0	0	0	0	0
45	68	10	7	3	120	372	90	0	0	0	0
45	70	30	19	11	518	736	90	0	0	0	0
42	66	10	6	4	861	1135	90	0	0	0	0
42	68	10	6	4	577	865	90	0	0	0	0
42	65	10	6	4	924	1231	90	0	0	0	0
40	69	20	12	8	695	931	90	0	0	0	0
40	66	20	12	8	781	1031	90	0	0	0	0
38	68	20	11	9	955	1228	90	0	0	0	0
38	70	10	5	5	895	1226	90	0	0	0	0
35	66	10	5	5	780	1046	90	0	0	0	0
35	69	10	5	5	863	1149	90	0	0	0	0
25	85	20	6	14	197	409	90	0	0	0	0
22	75	30	9	21	959	1216	90	0	0	0	0
22	85	10	3	7	267	525	90	0	0	0	0
20	80	40	10	30	778	958	90	0	0	0	0
20	85	40	9	31	371	605	90	0	0	0	0
18	75	20	5	15	617	929	90	0	0	0	0
15	75	20	4	16	591	769	90	0	0	0	0
15	80	10	2	8	468	702	90	0	0	0	0
30	50	10	6	4	111	350	90	0	0	0	0
30	52	20	12	8	112	360	90	0	0	0	0
28	52	20	11	9	114	351	90	0	0	0	0
28	55	10	5	5	114	342	90	0	0	0	0
25	50	10	5	5	116	384	90	0	0	0	0
25	52	40	19	21	147	445	90	0	0	0	0
25	55	10	5	5	666	952	90	0	0	0	0
23	52	10	4	6	293	483	90	0	0	0	0
23	55	20	8	12	430	720	90	0	0	0	0
20	50	10	4	6	198	404	90	0	0	0	0
20	55	10	4	6	377	587	90	0	0	0	0
10	35	20	6	14	490	696	90	0	0	0	0
10	40	30	8	22	271	539	90	0	0	0	0
8	40	40	8	32	333	661	90	0	0	0	0
8	45	20	4	16	221	419	90	0	0	0	0
5	35	10	1	9	651	931	90	0	0	0	0
5	45	10	1	9	277	549	90	0	0	0	0
2	40	20	1	19	596	794	90	0	0	0	0
0	40	30	0	30	481	725	90	0	0	0	0
0	45	20	0	20	377	639	90	0	0	0	0
35	30	10	9	1	159	385	90	0	0	0	0
35	32	10	9	1	120	361	90	0	0	0	0
33	32	20	19	1	263	467	90	0	0	0	0
33	35	10	9	1	800	1040	90	0	0	0	0
32	30	10	9	1	332	582	90	0	0	0	0
30	30	10	10	0	440	658	90	0	0	0	0
30	32	30	28	2	605	863	90	0	0	0	0
30	35	10	9	1	715	939	90	0	0	0	0
28	30	10	9	1	526	756	90	0	0	0	0
28	35	10	8	2	977	1227	90	0	0	0	0
26	32	10	8	2	945	1155	90	0	0	0	0
25	30	10	8	2	824	1090	90	0	0	0	0
25	35	10	7	3	984	1225	90	0	0	0	0
44	5	20	2	18	425	725	90	0	0	0	0
42	10	40	10	30	825	1055	90	0	0	0	0
42	15	10	4	6	918	1152	90	0	0	0	0
40	5	30	4	26	362	600	90	0	0	0	0
40	15	40	15	25	914	1212	90	0	0	0	0
38	5	30	4	26	260	518	90	0	0	0	0
38	15	10	4	6	137	370	90	0	0	0	0
35	5	20	3	17	211	440	90	0	0	0	0
50	30	10	6	4	885	1224	90	0	0	0	0
50	35	20	14	6	180	420	90	0	0	0	0
50	40	50	40	10	116	396	90	0	0	0	0
48	30	10	6	4	271	519	90	0	0	0	0
48	40	10	8	2	114	403	90	0	0	0	0
47	35	10	7	3	985	1230	90	0	0	0	0
47	40	10	9	1	114	413	90	0	0	0	0
45	30	10	7	3	355	621	90	0	0	0	0
45	35	10	8	2	445	721	90	0	0	0	0
95	30	30	9	21	410	626	90	0	0	0	0
95	35	20	7	13	488	738	90	0	0	0	0
53	30	10	6	4	929	1131	90	0	0	0	0
92	30	10	3	7	288	586	90	0	0	0	0
53	35	50	33	17	121	377	90	0	0	0	0
45	65	20	14	6	117	418	90	0	0	0	0
90	35	10	4	6	580	836	90	0	0	0	0
88	30	10	3	7	536	800	90	0	0	0	0
88	35	20	8	12	670	930	90	0	0	0	0
87	30	10	3	7	456	698	90	0	0	0	0
85	25	10	3	7	658	870	90	0	0	0	0
85	35	30	12	18	768	1018	90	0	0	0	0
75	55	20	15	5	456	734	90	0	0	0	0
72	55	10	8	2	564	812	90	0	0	0	0
70	58	20	17	3	661	901	90	0	0	0	0
68	60	30	26	4	729	1019	90	0	0	0	0
66	55	10	8	2	172	444	90	0	0	0	0
65	55	20	17	3	127	364	90	0	0	0	0
65	60	30	28	2	849	1085	90	0	0	0	0
63	58	10	9	1	939	1181	90	0	0	0	0
60	55	10	9	1	122	375	90	0	0	0	0
60	60	10	10	0	882	1224	90	0	0	0	0
67	85	20	16	4	468	712	90	0	0	0	0
65	85	40	31	9	540	824	90	0	0	0	0
65	82	10	8	2	385	607	90	0	0	0	0
62	80	30	23	7	292	514	90	0	0	0	0
60	80	10	8	2	176	446	90	0	0	0	0
60	85	30	21	9	652	902	90	0	0	0	0
58	75	20	15	5	181	449	90	0	0	0	0
55	80	10	7	3	845	1089	90	0	0	0	0
55	85	20	13	7	763	981	90	0	0	0	0
